proyfinal/src/viki/013/experimentInOfficeAgust.take6.output/39af60ee-965d-4ad9-b31e-573adf1731ee.als.out
Reading from standard input... Use '--help' for help.
============================[ Problem Statistics ]=============================
|                                                                             |
|  Number of variables:         87638                                         |
|  Number of clauses:          161767                                         |
|  Parse time:                   0.04 s                                       |
|                                                                             |
============================[ Search Statistics ]==============================
| Conflicts |          ORIGINAL         |          LEARNT          | Progress |
|           |    Vars  Clauses Literals |    Limit  Clauses Lit/Cl |          |
===============================================================================
|       100 |   62722   106374   265967 |    39003      100     10 | 28.431 % |
|       250 |   62722   106374   265967 |    42904      250     27 | 28.431 % |
|       475 |   62722   106374   265967 |    47194      475     45 | 28.431 % |
|       812 |   62705   106330   265877 |    51914      810     68 | 28.450 % |
|      1318 |   62705   106264   265724 |    57105     1167     59 | 28.450 % |
|      2077 |   62687   106190   265553 |    62816     1538     68 | 28.471 % |
|      3216 |   62687   106190   265553 |    69097     2677     96 | 28.471 % |
|      4924 |   62687   106190   265553 |    76007     4385    107 | 28.471 % |
|      7486 |   62687   106190   265553 |    83608     6947    116 | 28.471 % |
===============================================================================
restarts              : 46
conflicts             : 10597          (5937 /sec)
decisions             : 32374          (0.00 % random) (18137 /sec)
propagations          : 17580301       (9849294 /sec)
conflict literals     : 1185073        (51.72 % deleted)
Memory used           : 26.30 MB
CPU time              : 1.78493 s

UNSATISFIABLE
